(set-logic ALL)
(declare-fun i1 () Int)
(declare-fun it1 () Int)
(declare-fun i2 () Int)
(declare-fun it2 () Int)
(declare-fun i3 () Int)
(declare-fun it3 () Int)
(declare-fun i4 () Int)
(declare-fun it4 () Int)
(declare-fun it5 () Int)
(declare-fun i5 () Int)
(declare-fun i6 () Int)
(declare-fun it6 () Int)
(declare-fun it7 () Int)
(declare-fun it8 () Int)
(declare-fun it9 () Int)
(declare-fun it10 () Int)
(declare-fun it11 () Int)
(declare-fun it12 () Int)
(declare-fun it13 () Int)
(declare-fun it14 () Int)
(declare-fun it15 () Int)
(declare-fun it16 () Int)
(declare-fun it17 () Int)
(declare-fun it18 () Int)
(declare-fun it43 () Int)
(declare-fun it45 () Int)
(declare-fun it46 () Int)
(declare-fun it47 () Int)
(declare-fun it48 () Int)
(declare-fun it49 () Int)
(declare-fun it50 () Int)
(declare-fun it55 () Int)
(declare-fun it56 () Int)
(declare-fun it57 () Int)
(declare-fun it58 () Int)
(declare-fun it59 () Int)
(declare-fun it60 () Int)
(declare-fun it65 () Int)
(declare-fun it66 () Int)
(declare-fun it67 () Int)
(declare-fun it68 () Int)
(declare-fun it69 () Int)
(declare-fun it70 () Int)
(declare-fun it101 () Int)
(declare-fun it102 () Int)
(declare-fun it103 () Int)
(declare-fun it104 () Int)
(declare-fun it105 () Int)
(declare-fun it106 () Int)
(declare-fun it109 () Int)
(declare-fun it110 () Int)
(declare-fun it111 () Int)
(declare-fun it112 () Int)
(declare-fun it113 () Int)
(declare-fun it114 () Int)
(declare-fun it117 () Int)
(declare-fun it118 () Int)
(declare-fun it119 () Int)
(declare-fun it120 () Int)
(declare-fun it121 () Int)
(declare-fun it122 () Int)
(declare-fun it133 () Int)
(declare-fun it134 () Int)
(declare-fun it135 () Int)
(declare-fun it136 () Int)
(declare-fun it137 () Int)
(declare-fun it138 () Int)
(assert (= (+ i1 (- 1)) 0))
(assert (= (+ it1 (- 2)) 0))
(assert (= (+ it2 (* i2 (- 1)) (- 1)) 0))
(assert (= (+ it3 (* i3 (- 1))) 0))
(assert (= (+ it4 (* i4 (- 1))) 0))
(assert (= (+ (* i5 (- 1)) it5) 0))
(assert (= (+ it6 (* i6 (- 1))) 0))
(assert (and (>= (+ it3 (- 3)) 0) (= (+ it1 (- 2)) 0)))
(assert (= (+ it7 (- 5)) 0))
(assert (= (+ (* it2 (- 1)) it8 (- 2)) 0))
(assert (= (+ it9 (* it3 (- 1))) 0))
(assert (= it10 0))
(assert (= (+ it11 (* it5 (- 1))) 0))
(assert (= (+ it12 (* it6 (- 1))) 0))
(assert (and (= (+ it7 (- 5)) 0) (>= (+ it9 (* it10 (- 1)) (- 2)) 0)))
(assert (= (+ it13 (- 7)) 0))
(assert (= (+ it14 (* it8 (- 1)) (- 2)) 0))
(assert (= (+ it15 (* it9 (- 1))) 0))
(assert (= (+ it16 (* it10 (- 1))) 0))
(assert (= it17 0))
(assert (= (+ it18 (* it12 (- 1))) 0))
(assert (let ((a!1 (+ (* (exp 2 (+ it43 (- 1))) (+ 0 (- 2)))
              (+ 0 it15)
              (+ 0 (* it16 (- 1)))
              (* (exp 2 (+ it43 (- 1))) (+ 0 it17) (+ 0 (- 2)))))
      (a!2 (>= (+ (+ it15 (* it16 (- 1)) (* it17 (- 2))) (- 4)) 0))
      (a!3 (>= (+ (+ it15 (* it16 (- 1)) (* it17 (- 2))) (- 3)) 0)))
  (and (>= (+ (* it13 (- 1)) 7) 0)
       (>= (+ a!1 (+ 0 (- 1))) (+ 0 0))
       a!2
       (>= (+ a!1 (+ 0 (- 2))) (+ 0 0))
       a!3
       (>= (+ it13 (- 7)) 0)
       (>= (+ it43 (- 1)) 0))))
(assert (= (+ it45 (* it13 (- 1))) 0))
(assert (= (+ (* it43 (- 6)) it46 (* it14 (- 1))) 0))
(assert (= (+ (* it15 (- 1)) it47) 0))
(assert (= (+ it48 (* it16 (- 1))) 0))
(assert (= (+ (* (exp 2 it43) (+ 0 it17) (+ 0 (- 1)))
      (* (exp 2 it43) (+ 0 (- 1)))
      (+ 0 it49)
      (+ 0 1))
   (+ 0 0)))
(assert (let ((a!1 (+ (* (exp 2 (+ it43 (- 1))) (+ 0 (- 2)))
              (* (exp 2 (+ it43 (- 1))) (+ 0 it17) (+ 0 (- 2)))
              (+ 0 it50)
              (+ 0 1))))
  (= a!1 (+ 0 0))))
(assert (and (= (+ it45 (- 7)) 0) (>= (+ it48 (* it49 2) (* it47 (- 1)) 2) 0)))
(assert (= (+ it55 (- 5)) 0))
(assert (= (+ (* it46 (- 1)) it56 (- 2)) 0))
(assert (= (+ (* it47 (- 1)) it57) 0))
(assert (= (+ (* it48 (- 1)) it58 (- 1)) 0))
(assert (= (+ (* it49 (- 1)) it59) 0))
(assert (= (+ (* it50 (- 1)) it60) 0))
(assert (and (= (+ it55 (- 5)) 0) (>= (+ (* it58 (- 1)) it57 (- 2)) 0)))
(assert (= (+ it65 (- 7)) 0))
(assert (= (+ (* it56 (- 1)) it66 (- 2)) 0))
(assert (= (+ it67 (* it57 (- 1))) 0))
(assert (= (+ (* it58 (- 1)) it68) 0))
(assert (= it69 0))
(assert (= (+ it70 (* it60 (- 1))) 0))
(assert (and (= (+ it65 (- 7)) 0) (>= (+ it67 (* it68 (- 1)) (* it69 (- 2)) (- 3)) 0)))
(assert (= (+ it101 (- 8)) 0))
(assert (= (+ it102 (* it66 (- 1)) (- 1)) 0))
(assert (= (+ (* it67 (- 1)) it103) 0))
(assert (= (+ (* it68 (- 1)) it104) 0))
(assert (= (+ it105 (* it69 (- 1))) 0))
(assert (= (+ (* it70 (- 1)) it106) 0))
(assert (and (>= (+ (* it105 (- 2)) it103 (* it104 (- 1)) (- 4)) 0)
     (= (+ it101 (- 8)) 0)))
(assert (= (+ it109 (- 11)) 0))
(assert (= (+ (* it102 (- 1)) it110 (- 1)) 0))
(assert (= (+ it111 (* it103 (- 1))) 0))
(assert (= (+ it112 (* it104 (- 1))) 0))
(assert (= (+ (* it105 (- 1)) it113) 0))
(assert (= (+ it114 (* it106 (- 1))) 0))
(assert (= (+ it109 (- 11)) 0))
(assert (= (+ it117 (- 13)) 0))
(assert (= (+ it118 (* it110 (- 1)) (- 2)) 0))
(assert (= (+ (* it111 (- 1)) it119) 0))
(assert (= (+ (* it112 (- 1)) it120) 0))
(assert (= (+ it121 (* it113 (- 1))) 0))
(assert (= (+ it122 (* it113 (- 2)) (- 1)) 0))
(assert (= (+ it117 (- 13)) 0))
(assert (= (+ it133 (- 7)) 0))
(assert (= (+ (* it118 (- 1)) it134 (- 1)) 0))
(assert (= (+ (* it119 (- 1)) it135) 0))
(assert (= (+ it136 (* it120 (- 1))) 0))
(assert (= (+ it137 (* it119 (- 1))) 0))
(assert (= (+ (* it122 (- 1)) it138) 0))
(assert (let ((a!1 (>= (+ (+ (* it136 (- 1)) (* it137 (- 2)) it135) (- 3)) 0))
      (a!2 (>= (+ (+ (* it136 (- 1)) (* it137 (- 2)) it135) (- 4)) 0)))
  (and a!1
       (<= (+ (* it137 2) 2) 0)
       (>= (+ it133 (- 7)) 0)
       a!2
       (>= (+ (* it133 (- 1)) 7) 0))))
(check-sat)
